<number of tasks>
250

<cycle time>
1000

<order strength>
0.597


<task times>
1 201
2 77
3 141
4 22
5 112
6 265
7 256
8 256
9 164
10 207
11 31
12 44
13 129
14 27
15 208
16 208
17 250
18 141
19 265
20 201
21 207
22 26
23 68
24 153
25 87
26 131
27 203
28 41
29 125
30 162
31 41
32 155
33 114
34 103
35 35
36 64
37 149
38 224
39 159
40 32
41 103
42 125
43 113
44 21
45 223
46 191
47 132
48 129
49 113
50 221
51 173
52 71
53 115
54 176
55 252
56 135
57 75
58 143
59 86
60 258
61 33
62 50
63 66
64 88
65 126
66 200
67 83
68 225
69 177
70 140
71 166
72 139
73 21
74 24
75 89
76 222
77 156
78 244
79 176
80 254
81 224
82 68
83 132
84 59
85 77
86 41
87 157
88 84
89 157
90 71
91 194
92 126
93 23
94 234
95 189
96 161
97 249
98 194
99 67
100 147
101 154
102 94
103 124
104 199
105 194
106 262
107 109
108 44
109 197
110 285
111 62
112 143
113 78
114 280
115 159
116 108
117 87
118 146
119 141
120 117
121 76
122 37
123 206
124 195
125 135
126 176
127 105
128 67
129 148
130 114
131 128
132 83
133 65
134 84
135 157
136 189
137 235
138 56
139 78
140 51
141 143
142 293
143 80
144 283
145 188
146 168
147 322
148 142
149 91
150 193
151 100
152 122
153 176
154 200
155 222
156 61
157 56
158 77
159 209
160 223
161 92
162 82
163 83
164 51
165 184
166 47
167 121
168 132
169 146
170 146
171 27
172 86
173 111
174 94
175 40
176 97
177 182
178 102
179 248
180 84
181 137
182 199
183 52
184 30
185 103
186 79
187 241
188 96
189 190
190 47
191 153
192 32
193 85
194 125
195 108
196 56
197 157
198 143
199 136
200 218
201 218
202 132
203 142
204 111
205 138
206 142
207 195
208 124
209 157
210 264
211 254
212 172
213 80
214 267
215 216
216 32
217 136
218 53
219 259
220 126
221 112
222 174
223 89
224 93
225 264
226 263
227 138
228 73
229 137
230 120
231 60
232 149
233 182
234 187
235 187
236 133
237 212
238 278
239 116
240 228
241 111
242 171
243 242
244 337
245 30
246 181
247 301
248 136
249 36
250 105

<precedence relations>
1,11
2,12
3,9
3,66
4,10
4,13
4,14
5,13
5,14
5,15
5,16
5,17
6,14
6,35
7,13
7,15
7,16
7,26
8,13
8,14
8,15
8,16
8,17
9,18
10,19
11,20
12,21
13,21
13,22
13,23
13,24
13,25
13,27
13,28
14,21
14,22
14,23
14,26
15,21
16,24
16,27
17,21
17,22
17,23
17,24
17,25
17,26
18,29
19,31
20,32
21,30
21,31
21,33
22,36
22,57
23,31
24,34
25,31
25,32
26,31
26,32
27,31
28,31
28,35
28,56
29,37
30,38
31,39
31,41
31,42
31,43
31,57
32,41
33,40
33,41
33,42
33,43
34,41
34,65
34,67
34,68
35,41
36,41
36,42
36,44
37,49
38,50
39,47
40,48
41,45
41,51
42,46
42,49
43,64
43,151
44,95
45,52
46,53
47,54
48,56
49,55
49,58
50,57
50,138
51,59
51,60
52,61
53,64
54,63
55,62
55,65
55,67
56,84
56,158
56,196
56,200
57,64
57,151
58,64
58,68
58,72
59,66
59,72
60,64
61,69
62,71
63,70
64,75
64,96
65,72
65,73
65,74
66,73
66,74
67,80
68,169
68,194
68,229
69,78
70,76
71,79
72,77
72,79
73,88
74,78
74,79
74,80
75,129
76,84
77,81
78,82
78,96
79,103
79,151
80,83
80,84
81,86
82,87
83,85
83,88
84,118
84,204
85,89
86,91
87,92
88,90
88,93
88,94
88,95
88,96
89,97
90,102
91,100
92,98
92,204
93,99
93,103
94,101
94,119
94,184
95,103
95,104
96,103
97,105
98,107
99,108
100,109
101,110
102,111
103,106
103,111
103,117
103,158
104,121
104,196
105,116
106,112
107,113
108,114
109,115
110,117
111,118
111,119
111,120
111,121
112,124
113,125
114,129
115,122
116,123
117,126
117,128
118,127
118,130
118,131
119,171
119,243
120,178
121,207
122,136
123,138
124,132
125,133
126,134
127,135
128,137
129,140
129,141
129,159
129,196
130,225
131,139
131,140
131,149
132,142
133,147
134,148
135,149
136,143
137,144
138,144
138,150
138,151
138,186
139,144
139,145
139,207
139,217
140,165
141,146
141,157
141,165
142,154
143,156
144,152
144,156
144,157
145,153
145,157
145,218
146,155
146,156
146,188
146,193
146,235
147,158
147,159
147,192
147,219
147,230
147,234
148,157
148,174
148,178
148,188
149,159
151,158
152,160
153,161
154,163
155,162
156,164
158,169
158,193
159,165
160,168
161,169
162,167
163,166
164,168
164,171
164,172
164,173
164,174
164,243
165,170
165,205
166,178
167,177
169,195
169,216
169,237
169,242
170,175
170,179
170,216
171,176
171,187
171,195
172,249
173,187
173,215
173,229
174,219
175,182
176,183
177,180
178,181
178,185
178,186
179,184
179,187
179,188
179,239
180,189
181,190
182,191
183,192
185,196
185,206
186,193
186,194
186,245
187,194
187,231
187,242
188,195
189,197
190,200
191,199
192,198
192,241
193,238
193,246
194,244
194,250
195,240
196,204
196,242
197,201
198,202
199,206
200,203
200,204
200,205
200,206
200,207
200,208
200,209
201,210
202,212
203,213
204,211
204,216
205,214
205,226
205,227
206,218
206,220
206,227
207,215
207,218
207,220
208,217
208,219
208,244
208,245
210,225
211,221
212,222
213,226
214,223
215,224
215,230
216,227
216,228
217,225
217,229
220,231
221,234
222,232
223,235
224,233
225,237
225,246
225,248
227,235
227,240
228,236
229,234
230,239
231,237
231,238
232,240
233,240
234,241
235,243
235,244
236,250
238,244
238,247
238,248
239,241
239,242
240,248
240,249
242,246
242,247
242,250
243,245
243,246

<end>
